SAT
-1 -100 -99 -98 23 -97 -96 -95 -94 93 -88 -85 61 -20 -67 -54 -82 -24 48 -17 36 -80 2 -57 -92 -22 -87 -62 -6 47 37 -21 55 -8 40 -5 -59 81 45 -15 -29 -7 -35 -32 70 71 18 -69 3 -39 -30 -73 -31 50 -52 -75 -44 -90 60 -38 -72 -25 -53 -74 -58 86 27 12 43 11 -14 -46 34 66 41 19 9 33 -56 -64 -76 -28 -68 -42 13 -63 -79 -65 84 89 -91 -10 -51 83 49 77 -78 4 -16 -26 0
